GLPSOL: GLPK LP/MIP Solver, v4.55
Parameter(s) specified in the command line:
 -m tmp.mod
Reading model section from tmp.mod...
Reading data section from tmp.mod...
169 lines were read
Generating obj...
Generating kirhoff...
Generating init_charge...
Generating batt_size...
Model has been successfully generated
GLPK Simplex Optimizer, v4.55
142 rows, 177 columns, 322 non-zeros
Preprocessing...
90 rows, 146 columns, 281 non-zeros
Scaling...
 A: min|aij| =  1.000e+00  max|aij| =  1.000e+00  ratio =  1.000e+00
Problem data seem to be well scaled
Constructing initial basis...
Size of triangular part is 71
      0: obj =   0.000000000e+00  infeas =  1.020e+02 (19)
*    23: obj =   1.000000000e+00  infeas =  0.000e+00 (16)
OPTIMAL LP SOLUTION FOUND
Time used:   0.0 secs
Memory used: 0.5 Mb (477904 bytes)
#OUTPUT:
1
-9 -9 -9 0 0 -9 0 0 0 0 0 0 0 0 0 0 0 
-14 -14 -14 -1 0 -14 0 0 -11 0 -1 0 0 0 0 0 0 
-15 -17 -4 0 0 -4 0 2 0 -2 0 2 0 0 0 0 0 
-15 0 0 0 -13 0 -2 1 0 -1 0 1 0 0 0 0 0 
-15 0 0 0 0 0 0 2 0 -2 0 2 0 0 0 0 0 
#OUTPUT END
Model has been successfully processed
